PROBLEM NAME: small_6_BoundedStronglyCorrelated_n14_m39_c1
KNAPSACK DATA TYPE:
DIMENSION: 14
NUMBER OF ITEMS: 39
CAPACITY OF KNAPSACK: 1920
MIN SPEED: 0.1
MAX SPEED: 1.0
RENTING RATIO: 1.0
EDGE_WEIGHT_TYPE: CEIL_2D
NODE_COORD_SECTION	(INDEX, X, Y): 
1	112	831
2	751	845
3	515	648
4	186	135
5	45	922
6	495	775
7	601	481
8	556	64
9	407	729
10	518	975
11	270	404
12	115	232
13	726	790
14	830	868
ITEMS SECTION	(INDEX, PROFIT, WEIGHT, ASSIGNED NODE NUMBER): 
1	844	744	2
2	692	592	2
3	936	836	2
4	1071	971	3
5	374	274	3
6	501	401	3
7	128	28	4
8	620	520	4
9	187	87	4
10	606	506	5
11	1068	968	5
12	992	892	5
13	536	436	6
14	1000	900	6
15	382	282	6
16	348	248	7
17	807	707	7
18	407	307	7
19	209	109	8
20	1061	961	8
21	942	842	8
22	630	530	9
23	930	830	9
24	585	485	9
25	528	428	10
26	142	42	10
27	656	556	10
28	643	543	11
29	301	201	11
30	933	833	11
31	975	875	12
32	877	777	12
33	991	891	12
34	653	553	13
35	529	429	13
36	993	893	13
37	489	389	14
38	182	82	14
39	276	176	14
